S = 7;
start = [|0,0,0,0,0,33,10,49,28,0,0,0,0,0,11,0,32,4,0,0,0,0,19,9,8,0,0,0,0,0,44,0,29,0,0,0,0,0,37,0,23,0,26,0,34,0,0,0,0|
27,0,15,38,4,0,24,0,8,0,0,0,44,2,25,0,0,0,0,28,40,0,49,0,0,0,0,26,21,0,0,11,19,0,30,41,13,5,7,0,34,0,0,39,0,0,42,0,0|
0,0,0,26,0,0,46,40,0,18,0,0,0,0,0,0,12,16,24,0,33,0,0,0,45,0,0,0,9,31,0,0,0,41,0,4,0,8,0,14,0,39,0,25,0,0,36,13,15|
18,0,0,25,21,0,37,11,41,13,15,0,0,0,0,0,0,14,0,0,0,0,32,0,0,0,0,0,0,0,0,48,0,36,4,49,0,29,17,0,0,0,8,5,3,20,16,46,6|
0,0,0,0,6,49,47,0,0,0,0,32,0,0,9,0,0,3,35,7,0,0,0,0,0,0,4,0,13,46,0,0,34,0,0,0,0,0,0,0,0,19,0,23,48,0,0,0,0|
0,43,0,0,45,2,12,9,38,0,6,0,0,42,0,0,0,0,48,0,0,0,24,0,0,40,0,37,0,0,22,0,0,0,0,0,0,0,0,31,0,0,0,0,28,47,0,0,0|
19,3,0,0,0,0,0,0,0,0,31,25,0,0,0,0,0,0,0,0,0,0,48,0,0,0,0,0,0,23,0,0,0,24,0,0,9,0,0,0,0,0,0,0,0,0,29,0,0|
0,0,0,22,0,40,38,44,0,31,0,0,0,21,0,1,0,0,0,0,0,0,0,0,37,35,11,19,15,25,0,0,0,48,0,0,0,0,2,47,0,0,4,0,0,0,34,0,5|
0,0,47,19,0,0,0,0,0,0,20,34,25,0,0,0,0,0,0,0,0,43,0,30,16,0,17,36,0,27,14,0,0,0,8,46,23,0,28,24,0,26,29,0,40,0,45,0,9|
25,0,0,0,8,26,0,0,0,0,0,0,35,46,0,0,0,47,0,34,0,0,0,0,0,0,12,0,0,0,3,0,0,0,0,0,39,15,0,0,0,49,6,0,0,21,23,0,0|
0,0,0,0,0,0,0,18,0,12,0,0,0,0,37,13,3,22,0,9,0,25,27,0,21,0,38,5,44,0,0,0,0,0,0,0,1,30,0,17,36,0,0,0,41,16,48,20,19|
0,0,0,0,0,13,0,0,48,0,0,17,0,0,0,15,46,25,0,2,0,0,0,44,4,20,6,0,11,0,0,0,10,1,22,0,0,0,41,0,0,0,0,0,0,0,0,0,28|
0,0,0,0,0,45,0,0,29,36,0,0,0,0,7,0,0,0,0,0,19,34,33,47,14,0,0,15,46,21,39,0,0,20,41,0,35,32,0,0,12,0,49,0,0,0,0,0,38|
21,0,0,0,44,0,0,0,39,0,0,0,0,0,0,43,0,0,33,0,0,0,46,2,0,0,48,40,0,0,0,0,0,37,5,0,0,0,31,42,0,0,0,0,0,0,0,1,0|
0,8,0,3,25,0,45,39,5,0,0,0,41,37,14,47,26,0,6,18,15,42,0,0,0,23,0,9,0,0,27,20,0,0,0,33,0,0,32,0,0,0,0,34,0,0,40,11,0|
36,0,0,0,41,0,30,32,3,8,26,0,17,0,0,33,0,34,0,0,25,0,0,0,40,0,0,14,0,29,0,9,0,0,0,0,0,0,23,0,47,7,0,0,0,0,0,0,0|
2,0,26,0,11,27,31,0,0,0,0,36,0,0,0,7,20,0,0,0,0,0,0,16,10,15,0,0,0,22,0,0,0,0,0,19,0,1,34,0,0,0,0,14,6,0,49,4,0|
0,0,0,0,0,0,0,14,0,0,0,0,0,0,4,46,0,0,0,0,0,0,0,37,0,0,31,48,0,0,0,0,0,0,25,20,0,35,36,0,0,28,3,18,0,0,10,0,32|
6,0,0,0,22,0,40,0,13,0,0,0,0,0,21,0,0,0,23,0,0,17,0,18,35,0,0,0,0,0,0,0,0,0,0,0,0,0,0,0,0,27,0,1,0,30,24,0,0|
0,0,0,0,0,0,0,0,0,0,0,0,15,10,0,0,0,0,0,31,5,38,47,0,32,0,0,27,0,36,0,34,0,42,0,0,0,0,24,30,6,0,41,0,0,0,0,0,0|
0,0,0,15,0,0,7,25,0,4,0,0,0,29,0,32,0,0,0,0,0,24,0,0,0,12,8,0,0,0,46,0,0,21,0,0,0,0,0,0,0,0,0,0,0,0,0,0,0|
0,38,0,0,40,17,0,0,10,0,24,0,23,0,0,12,22,0,0,49,0,30,0,19,0,0,0,0,0,0,2,16,0,14,27,0,47,0,13,0,0,44,0,0,0,0,0,6,0|
28,33,24,49,36,30,0,7,0,48,0,6,0,0,3,0,0,0,0,0,0,44,38,20,0,0,16,0,47,10,40,0,0,8,0,0,5,17,0,46,0,0,0,0,11,0,0,37,21|
45,0,34,18,0,42,0,0,36,0,0,0,0,35,19,0,0,0,27,11,0,8,0,0,0,0,0,0,25,1,0,28,38,0,0,12,10,0,0,4,7,0,0,0,0,0,0,0,0|
0,0,0,0,0,29,0,47,18,38,17,0,0,0,0,0,2,0,0,0,45,0,0,0,0,0,0,0,20,34,42,0,0,0,0,0,6,0,0,48,0,0,0,0,27,25,0,0,0|
11,27,0,37,0,19,0,0,0,25,0,0,3,32,0,6,0,0,20,24,0,0,0,12,43,22,0,18,0,0,0,0,48,26,0,0,33,0,0,0,45,0,0,0,9,28,0,0,16|
0,0,0,6,0,0,23,0,20,0,0,11,12,0,17,35,0,21,0,14,0,0,15,0,24,0,0,31,29,41,0,0,22,0,19,0,0,0,0,0,0,0,0,0,10,3,5,0,45|
0,0,0,7,12,21,39,0,0,0,0,19,0,0,32,0,0,0,0,36,43,0,0,0,33,0,47,0,37,0,0,0,0,30,0,0,0,20,35,3,0,0,17,0,0,49,0,0,0|
23,6,0,0,0,0,0,0,31,7,0,9,0,0,0,0,0,0,12,0,0,0,14,0,0,0,24,0,41,48,0,0,17,0,0,43,0,0,5,0,1,0,40,0,0,0,0,0,0|
0,0,35,0,0,47,27,45,11,2,0,0,0,4,0,0,7,0,0,0,0,0,0,0,0,0,42,0,0,38,0,0,0,15,0,17,8,0,0,19,44,24,0,0,36,14,0,48,0|
33,13,0,0,49,0,22,0,0,0,39,0,46,0,0,27,0,0,43,0,20,0,0,48,15,0,0,4,26,0,21,36,0,0,0,30,0,7,0,28,0,6,18,0,0,0,1,0,10|
0,0,0,0,0,0,20,0,40,26,44,0,0,0,0,0,0,0,0,0,0,37,0,0,2,0,0,0,0,11,9,42,30,0,33,0,48,12,0,0,0,0,0,45,29,8,0,0,23|
0,0,0,0,0,0,0,0,0,0,0,0,14,0,0,0,35,26,8,0,0,0,0,27,0,7,0,16,0,0,25,6,0,31,0,0,0,0,45,29,0,0,0,0,0,11,19,0,3|
0,42,0,41,29,7,4,12,0,5,0,0,0,36,16,0,0,0,10,0,13,22,45,0,0,0,0,0,18,43,23,0,44,0,0,31,2,0,0,0,0,0,24,46,0,37,0,0,0|
0,0,0,36,0,0,18,8,49,34,19,0,37,0,0,14,0,0,45,5,0,0,0,0,0,0,0,30,0,24,28,0,0,29,0,35,0,42,0,41,4,0,0,0,0,31,0,43,26|
9,1,0,29,0,0,14,0,44,47,0,0,48,20,42,0,49,0,7,15,0,0,0,0,0,33,37,24,0,3,41,35,21,0,13,27,19,31,0,26,0,0,0,0,0,0,4,0,0|
0,0,32,24,2,0,0,0,30,1,0,0,11,0,0,0,0,0,0,43,0,16,0,17,20,0,0,22,0,26,0,33,15,0,12,45,0,46,0,0,13,23,36,0,0,0,0,0,0|
47,0,0,0,43,0,0,0,6,0,46,0,2,0,0,0,0,0,41,38,0,0,0,0,0,0,23,0,16,0,20,0,49,0,36,1,0,0,0,0,0,5,21,0,0,0,0,0,0|
0,0,0,0,0,4,0,0,17,23,0,0,0,0,0,2,0,30,0,0,0,46,28,36,0,0,0,0,8,19,0,0,0,0,0,44,0,0,0,11,41,0,0,0,45,0,0,0,29|
0,12,49,0,7,20,0,0,0,0,8,0,0,0,10,48,0,0,17,0,23,0,0,0,0,44,15,34,5,0,0,0,0,0,0,47,0,0,38,0,0,36,0,40,31,0,0,0,2|
0,36,0,17,0,41,0,0,0,0,0,43,34,0,12,0,0,45,0,0,0,0,0,0,31,0,0,0,40,0,29,0,0,0,0,7,0,0,0,2,9,0,11,19,37,0,39,8,0|
0,0,38,0,0,0,0,33,0,0,0,31,0,0,0,0,0,0,0,0,3,0,0,0,1,48,27,0,39,45,0,0,9,0,6,0,0,0,0,34,0,17,47,42,0,0,25,0,12|
0,0,4,0,0,11,0,0,0,10,37,0,0,33,0,9,1,0,0,0,17,0,0,0,0,0,7,0,0,32,0,0,0,0,0,0,28,0,0,0,0,0,43,0,0,19,0,15,0|
37,26,0,27,0,0,0,0,0,0,0,4,36,0,0,0,0,0,5,0,11,0,16,41,0,0,20,0,22,33,0,25,7,0,0,0,49,0,0,0,0,29,0,0,30,0,0,0,0|
0,24,0,0,0,32,1,0,25,0,0,0,5,34,0,0,0,0,0,37,49,0,0,0,0,0,0,44,0,0,0,0,31,0,42,0,0,19,0,0,0,0,23,33,0,4,46,0,0|
0,0,5,0,0,0,0,20,0,11,12,18,0,0,48,0,0,0,44,0,0,0,0,34,0,26,0,49,36,0,0,0,0,0,0,32,0,0,0,0,0,0,0,0,0,0,21,2,0|
15,0,17,0,0,0,0,0,0,0,0,0,0,0,0,0,0,27,0,0,0,0,0,0,0,32,0,0,0,0,0,0,0,5,0,0,0,0,4,0,0,33,0,3,0,13,0,0,0|
0,10,43,47,0,0,0,27,9,30,0,39,31,48,0,23,0,0,2,0,0,0,0,0,38,45,0,0,0,44,0,0,8,0,0,0,0,11,15,0,0,0,0,0,0,0,0,0,41|
0,0,0,0,0,34,0,0,0,0,0,0,0,0,46,0,0,7,19,0,32,0,13,0,0,0,0,11,0,0,4,10,6,0,0,0,31,0,1,27,0,0,48,28,8,44,0,0,36|];